c Result of efficient AIG-to-CNF conversion using package CNF
p cnf 649 2507
-2 3 462 464 466 0
-2 3 -462 -464 466 0
2 -466 0
2 -462 464 0
2 -3 0
2 462 -464 0
3 4 -338 0
3 -4 338 0
-3 -4 -338 0
-3 4 338 0
4 5 -247 0
4 -5 247 0
-4 -5 -247 0
-4 5 247 0
5 6 -243 0
5 -6 243 0
-5 -6 -243 0
-5 6 243 0
6 -618 -7 0
6 -7 -25 0
6 -618 -25 0
-6 618 25 0
-6 7 25 0
-6 618 7 0
7 -8 11 0
-7 8 0
-7 -11 0
8 613 -9 0
-8 -613 0
-8 9 0
9 614 -10 0
-9 -614 0
-9 10 0
10 615 616 -618 0
10 615 -616 -617 0
-10 -615 0
-10 -616 617 0
-10 616 618 0
-11 12 14 16 17 0
11 -17 0
11 -12 0
11 -16 0
11 -14 0
-12 594 13 0
12 -594 0
12 -13 0
-13 592 593 0
13 -592 0
13 -593 0
-14 603 15 0
14 -603 0
14 -15 0
-15 601 602 0
15 -601 0
15 -602 0
-16 604 605 606 607 0
16 -607 0
16 -606 0
16 -604 0
16 -605 0
-17 611 612 18 21 0
17 -611 0
17 -21 0
17 -18 0
17 -612 0
-18 585 19 20 0
18 -20 0
18 -19 0
18 -585 0
-19 595 596 597 0
19 -595 0
19 -597 0
19 -596 0
-20 598 599 600 0
20 -598 0
20 -600 0
20 -599 0
-21 22 23 24 0
21 -22 0
21 -23 0
21 -24 0
-22 589 590 591 0
22 -589 0
22 -591 0
22 -590 0
-23 586 587 588 0
23 -586 0
23 -588 0
23 -587 0
-24 608 609 610 0
24 -608 0
24 -610 0
24 -609 0
25 -619 -26 0
25 -26 -31 0
25 -619 -31 0
-25 619 31 0
-25 26 31 0
-25 619 26 0
26 11 -27 0
-26 -11 0
-26 27 0
27 613 -28 0
-27 -613 0
-27 28 0
28 614 -29 0
-28 -614 0
-28 29 0
29 615 -30 0
29 -615 616 -617 0
-29 -615 -616 0
-29 615 30 0
-29 -615 617 0
30 -616 -618 0
30 616 -619 0
-30 616 619 0
-30 -616 618 0
31 -620 -32 0
31 -32 -43 0
31 -620 -43 0
-31 620 43 0
-31 32 43 0
-31 620 32 0
32 19 -33 38 0
-32 -19 0
-32 33 0
-32 -38 0
33 613 -34 0
-33 -613 0
-33 34 0
34 614 -35 0
-34 -614 0
-34 35 0
35 -615 -36 0
35 615 -37 0
-35 615 37 0
-35 -615 36 0
36 -616 -617 0
36 616 -618 0
-36 616 618 0
-36 -616 617 0
37 -616 -619 0
37 616 -620 0
-37 616 620 0
-37 -616 619 0
-38 39 40 41 42 0
38 -42 0
38 -39 0
38 -41 0
38 -40 0
-39 585 12 0
39 -585 0
39 -12 0
-40 603 611 612 16 0
40 -16 0
40 -612 0
40 -603 0
40 -611 0
-41 15 22 24 0
41 -15 0
41 -22 0
41 -24 0
-42 586 587 588 20 0
42 -20 0
42 -588 0
42 -586 0
42 -587 0
43 -621 -44 0
43 -44 -50 0
43 -621 -50 0
-43 621 50 0
-43 44 50 0
-43 621 44 0
44 11 -45 0
-44 -11 0
-44 45 0
45 613 -46 0
-45 -613 0
-45 46 0
46 614 -47 0
46 -614 -49 0
-46 -614 49 0
-46 614 47 0
47 -615 -30 0
47 615 -48 0
-47 615 48 0
-47 -615 30 0
48 -616 -620 0
48 616 -621 0
-48 616 621 0
-48 -616 620 0
49 615 616 -617 0
-49 617 0
-49 -616 0
-49 -615 0
50 -622 -51 0
50 -51 -56 0
50 -622 -56 0
-50 622 56 0
-50 51 56 0
-50 622 51 0
51 11 -52 0
-51 -11 0
-51 52 0
52 613 -53 0
-52 -613 0
-52 53 0
53 -614 -10 0
53 614 -54 0
-53 614 54 0
-53 -614 10 0
54 -615 -37 0
54 615 -55 0
-54 615 55 0
-54 -615 37 0
55 -616 -621 0
55 616 -622 0
-55 616 622 0
-55 -616 621 0
56 -623 -57 0
56 -57 -62 0
56 -623 -62 0
-56 623 62 0
-56 57 62 0
-56 623 57 0
57 11 -58 0
-57 -11 0
-57 58 0
58 613 -59 0
-58 -613 0
-58 59 0
59 -614 -29 0
59 614 -60 0
-59 614 60 0
-59 -614 29 0
60 -615 -48 0
60 615 -61 0
-60 615 61 0
-60 -615 48 0
61 -616 -622 0
61 616 -623 0
-61 616 623 0
-61 -616 622 0
62 -624 -63 0
62 -63 -68 0
62 -624 -68 0
-62 624 68 0
-62 63 68 0
-62 624 63 0
63 11 -64 0
-63 -11 0
-63 64 0
64 613 -65 0
-64 -613 0
-64 65 0
65 -614 -35 0
65 614 -66 0
-65 614 66 0
-65 -614 35 0
66 -615 -55 0
66 615 -67 0
-66 615 67 0
-66 -615 55 0
67 -616 -623 0
67 616 -624 0
-67 616 624 0
-67 -616 623 0
68 -625 -69 0
68 -69 -80 0
68 -625 -80 0
-68 625 80 0
-68 69 80 0
-68 625 69 0
69 588 -70 75 76 0
-69 -588 0
-69 -76 0
-69 -75 0
-69 70 0
70 613 -71 0
70 -613 -74 0
-70 -613 74 0
-70 613 71 0
71 -614 -47 0
71 614 -72 0
-71 614 72 0
-71 -614 47 0
72 -615 -61 0
72 615 -73 0
-72 615 73 0
-72 -615 61 0
73 -616 -624 0
73 616 -625 0
-73 616 625 0
-73 -616 624 0
74 614 615 616 -617 0
-74 617 0
-74 -616 0
-74 -614 0
-74 -615 0
-75 20 40 0
75 -20 0
75 -40 0
-76 585 13 77 78 0
76 -585 0
76 -78 0
76 -77 0
76 -13 0
-77 594 595 0
77 -594 0
77 -595 0
-78 596 597 79 41 0
78 -596 0
78 -41 0
78 -79 0
78 -597 0
-79 586 587 0
79 -586 0
79 -587 0
80 -626 -81 0
80 -81 -88 0
80 -626 -88 0
-80 626 88 0
-80 81 88 0
-80 626 81 0
81 21 39 75 -82 0
-81 82 0
-81 -21 0
-81 -75 0
-81 -39 0
82 83 -84 0
-82 -83 0
-82 84 0
-83 15 19 0
83 -15 0
83 -19 0
84 -613 -9 0
84 613 -85 0
-84 613 85 0
-84 -613 9 0
85 -614 -54 0
85 614 -86 0
-85 614 86 0
-85 -614 54 0
86 -615 -67 0
86 615 -87 0
-86 615 87 0
-86 -615 67 0
87 -616 -625 0
87 616 -626 0
-87 616 626 0
-87 -616 625 0
88 -627 -89 0
88 -89 -94 0
88 -627 -94 0
-88 627 94 0
-88 89 94 0
-88 627 89 0
89 11 -90 0
-89 -11 0
-89 90 0
90 -613 -28 0
90 613 -91 0
-90 613 91 0
-90 -613 28 0
91 -614 -60 0
91 614 -92 0
-91 614 92 0
-91 -614 60 0
92 -615 -73 0
92 615 -93 0
-92 615 93 0
-92 -615 73 0
93 -616 -626 0
93 616 -627 0
-93 616 627 0
-93 -616 626 0
94 -628 -95 0
94 -95 -100 0
94 -628 -100 0
-94 628 100 0
-94 95 100 0
-94 628 95 0
95 11 -96 0
-95 -11 0
-95 96 0
96 -613 -34 0
96 613 -97 0
-96 613 97 0
-96 -613 34 0
97 -614 -66 0
97 614 -98 0
-97 614 98 0
-97 -614 66 0
98 -615 -87 0
98 615 -99 0
-98 615 99 0
-98 -615 87 0
99 -616 -627 0
99 616 -628 0
-99 616 628 0
-99 -616 627 0
100 -629 -101 0
100 -101 -106 0
100 -629 -106 0
-100 629 106 0
-100 101 106 0
-100 629 101 0
101 11 -102 0
-101 -11 0
-101 102 0
102 -613 -46 0
102 613 -103 0
-102 613 103 0
-102 -613 46 0
103 -614 -72 0
103 614 -104 0
-103 614 104 0
-103 -614 72 0
104 -615 -93 0
104 615 -105 0
-104 615 105 0
-104 -615 93 0
105 -616 -628 0
105 616 -629 0
-105 616 629 0
-105 -616 628 0
106 -630 -107 0
106 -107 -112 0
106 -630 -112 0
-106 630 112 0
-106 107 112 0
-106 630 107 0
107 11 -108 0
-107 -11 0
-107 108 0
108 -613 -53 0
108 613 -109 0
-108 613 109 0
-108 -613 53 0
109 -614 -86 0
109 614 -110 0
-109 614 110 0
-109 -614 86 0
110 -615 -99 0
110 615 -111 0
-110 615 111 0
-110 -615 99 0
111 -616 -629 0
111 616 -630 0
-111 616 630 0
-111 -616 629 0
112 -631 -113 0
112 -113 -118 0
112 -631 -118 0
-112 631 118 0
-112 113 118 0
-112 631 113 0
113 11 -114 0
-113 -11 0
-113 114 0
114 -613 -59 0
114 613 -115 0
-114 613 115 0
-114 -613 59 0
115 -614 -92 0
115 614 -116 0
-115 614 116 0
-115 -614 92 0
116 -615 -105 0
116 615 -117 0
-116 615 117 0
-116 -615 105 0
117 -616 -630 0
117 616 -631 0
-117 616 631 0
-117 -616 630 0
118 -632 -119 0
118 -119 -124 0
118 -632 -124 0
-118 632 124 0
-118 119 124 0
-118 632 119 0
119 11 -120 0
-119 -11 0
-119 120 0
120 -613 -65 0
120 613 -121 0
-120 613 121 0
-120 -613 65 0
121 -614 -98 0
121 614 -122 0
-121 614 122 0
-121 -614 98 0
122 -615 -111 0
122 615 -123 0
-122 615 123 0
-122 -615 111 0
123 -616 -631 0
123 616 -632 0
-123 616 632 0
-123 -616 631 0
124 -633 -125 0
124 -125 -136 0
124 -633 -136 0
-124 633 136 0
-124 125 136 0
-124 633 125 0
125 613 -126 0
125 612 -71 -126 0
-125 126 0
-125 -613 71 0
-125 -612 -613 0
126 612 -127 132 0
126 -74 -127 132 0
-126 -132 0
-126 127 0
-126 -612 74 0
127 21 -129 0
127 21 -128 0
-127 -21 0
-127 128 129 0
-128 612 613 0
128 -612 0
128 -613 0
129 -614 -104 0
129 614 -130 0
-129 614 130 0
-129 -614 104 0
130 -615 -117 0
130 615 -131 0
-130 615 131 0
-130 -615 117 0
131 -616 -632 0
131 616 -633 0
-131 616 633 0
-131 -616 632 0
-132 12 133 18 134 0
132 -134 0
132 -12 0
132 -18 0
132 -133 0
-133 606 607 0
133 -606 0
133 -607 0
-134 603 611 15 135 0
134 -603 0
134 -135 0
134 -15 0
134 -611 0
-135 604 605 0
135 -604 0
135 -605 0
136 -634 -137 0
136 -137 -148 0
136 -634 -148 0
-136 634 148 0
-136 137 148 0
-136 634 137 0
137 613 138 -141 0
137 -85 138 -141 0
-137 141 0
-137 -138 0
-137 -613 85 0
-138 585 612 139 0
-138 585 -8 139 0
138 -585 0
138 -139 0
138 -612 8 0
-139 596 597 140 77 0
139 -596 0
139 -77 0
139 -140 0
139 -597 0
-140 589 590 0
140 -589 0
140 -590 0
141 134 142 143 -144 0
-141 144 0
-141 -134 0
-141 -143 0
-141 -142 0
-142 591 13 0
142 -591 0
142 -13 0
-143 606 607 24 0
143 -24 0
143 -607 0
143 -606 0
144 42 -145 0
144 42 -128 0
-144 -42 0
-144 128 145 0
145 -614 -110 0
145 614 -146 0
-145 614 146 0
-145 -614 110 0
146 -615 -123 0
146 615 -147 0
-146 615 147 0
-146 -615 123 0
147 -616 -633 0
147 616 -634 0
-147 616 634 0
-147 -616 633 0
148 -635 -149 0
148 -149 -160 0
148 -635 -160 0
-148 635 160 0
-148 149 160 0
-148 635 149 0
149 150 -151 155 0
-149 -150 0
-149 151 0
-149 -155 0
-150 612 613 0
-150 -27 -91 0
-150 612 -91 0
-150 613 -27 0
150 -612 27 0
150 -613 91 0
151 590 594 -152 0
151 590 594 -128 0
-151 -590 0
-151 -594 0
-151 128 152 0
152 -614 -116 0
152 614 -153 0
-152 614 153 0
-152 -614 116 0
153 -615 -131 0
153 615 -154 0
-153 615 154 0
-153 -615 131 0
154 -616 -634 0
154 616 -635 0
-154 616 635 0
-154 -616 634 0
-155 603 611 83 156 0
155 -603 0
155 -156 0
155 -83 0
155 -611 0
-156 585 586 157 159 0
156 -585 0
156 -159 0
156 -157 0
156 -586 0
-157 589 20 142 158 0
157 -589 0
157 -158 0
157 -142 0
157 -20 0
-158 587 588 0
158 -587 0
158 -588 0
-159 604 605 143 0
159 -143 0
159 -605 0
159 -604 0
160 -636 -161 0
160 -161 -167 0
160 -636 -167 0
-160 636 167 0
-160 161 167 0
-160 636 161 0
161 155 -162 166 0
-161 -155 0
-161 162 0
-161 -166 0
162 612 -163 0
162 -612 -33 0
162 612 -613 0
-162 -612 33 0
-162 612 613 163 0
163 -614 -122 0
163 614 -164 0
-163 614 164 0
-163 -614 122 0
164 -615 -147 0
164 615 -165 0
-164 615 165 0
-164 -615 147 0
165 -616 -635 0
165 616 -636 0
-165 616 636 0
-165 -616 635 0
-166 590 594 -97 0
-166 590 594 613 0
166 -590 0
166 -594 0
166 -613 97 0
167 -637 -168 0
167 -168 -177 0
167 -637 -177 0
-167 637 177 0
-167 168 177 0
-167 637 168 0
168 612 -169 173 0
168 -45 -169 173 0
-168 -173 0
-168 169 0
-168 -612 45 0
169 -613 -103 0
169 -612 613 0
169 613 -170 0
-169 -613 103 0
-169 612 613 170 0
170 -614 -130 0
170 614 -171 0
-170 614 171 0
-170 -614 130 0
171 -615 -154 0
171 615 -172 0
-171 615 172 0
-171 -615 154 0
172 -616 -636 0
172 616 -637 0
-172 616 637 0
-172 -616 636 0
-173 597 143 174 176 0
173 -597 0
173 -176 0
173 -174 0
173 -143 0
-174 596 13 22 175 0
174 -596 0
174 -175 0
174 -22 0
174 -13 0
-175 585 586 587 588 0
175 -588 0
175 -587 0
175 -585 0
175 -586 0
-176 594 595 20 134 0
176 -594 0
176 -134 0
176 -20 0
176 -595 0
177 -638 -178 0
177 -178 -183 0
177 -638 -183 0
-177 638 183 0
-177 178 183 0
-177 638 178 0
178 612 173 -179 0
178 -612 -52 173 0
-178 -173 0
-178 612 179 0
-178 -612 52 0
-179 613 180 0
-179 -613 109 0
179 -613 -109 0
179 613 -180 0
180 -614 -146 0
180 614 -181 0
-180 614 181 0
-180 -614 146 0
181 -615 -165 0
181 615 -182 0
-181 615 182 0
-181 -615 165 0
182 -616 -637 0
182 616 -638 0
-182 616 638 0
-182 -616 637 0
183 -639 -184 0
183 -184 -189 0
183 -639 -189 0
-183 639 189 0
-183 184 189 0
-183 639 184 0
184 612 173 -185 0
184 -612 -58 173 0
-184 -173 0
-184 612 185 0
-184 -612 58 0
-185 613 186 0
-185 -613 115 0
185 -613 -115 0
185 613 -186 0
186 -614 -153 0
186 614 -187 0
-186 614 187 0
-186 -614 153 0
187 -615 -172 0
187 615 -188 0
-187 615 188 0
-187 -615 172 0
188 -616 -638 0
188 616 -639 0
-188 616 639 0
-188 -616 638 0
189 -640 -190 0
189 -190 -195 0
189 -640 -195 0
-189 640 195 0
-189 190 195 0
-189 640 190 0
190 612 173 -191 0
190 -612 -64 173 0
-190 -173 0
-190 612 191 0
-190 -612 64 0
-191 613 192 0
-191 -613 121 0
191 -613 -121 0
191 613 -192 0
192 -614 -164 0
192 614 -193 0
-192 614 193 0
-192 -614 164 0
193 -615 -182 0
193 615 -194 0
-193 615 194 0
-193 -615 182 0
194 -616 -639 0
194 616 -640 0
-194 616 640 0
-194 -616 639 0
195 -641 -196 0
195 -196 -201 0
195 -641 -201 0
-195 641 201 0
-195 196 201 0
-195 641 196 0
196 612 173 -197 0
196 -612 -70 173 0
-196 -173 0
-196 612 197 0
-196 -612 70 0
-197 -613 129 0
-197 613 198 0
197 -613 -129 0
197 613 -198 0
-198 614 199 0
-198 -614 171 0
198 -614 -171 0
198 614 -199 0
199 -615 -188 0
199 615 -200 0
-199 615 200 0
-199 -615 188 0
200 -616 -640 0
200 616 -641 0
-200 616 641 0
-200 -616 640 0
201 -642 -202 0
201 -202 -207 0
201 -642 -207 0
-201 642 207 0
-201 202 207 0
-201 642 202 0
202 612 173 -203 0
202 -612 -84 173 0
-202 -173 0
-202 612 203 0
-202 -612 84 0
-203 -613 145 0
-203 613 204 0
203 -613 -145 0
203 613 -204 0
-204 614 205 0
-204 -614 181 0
204 -614 -181 0
204 614 -205 0
205 -615 -194 0
205 615 -206 0
-205 615 206 0
-205 -615 194 0
206 -616 -641 0
206 616 -642 0
-206 616 642 0
-206 -616 641 0
207 -643 -208 0
207 -208 -213 0
207 -643 -213 0
-207 643 213 0
-207 208 213 0
-207 643 208 0
208 612 173 -209 0
208 -612 -90 173 0
-208 -173 0
-208 612 209 0
-208 -612 90 0
-209 -613 152 0
-209 613 210 0
209 -613 -152 0
209 613 -210 0
-210 614 211 0
-210 -614 187 0
210 -614 -187 0
210 614 -211 0
211 -615 -200 0
211 615 -212 0
-211 615 212 0
-211 -615 200 0
212 -616 -642 0
212 616 -643 0
-212 616 643 0
-212 -616 642 0
213 -644 -214 0
213 -214 -219 0
213 -644 -219 0
-213 644 219 0
-213 214 219 0
-213 644 214 0
214 612 173 -215 0
214 -612 -96 173 0
-214 -173 0
-214 612 215 0
-214 -612 96 0
-215 -613 163 0
-215 613 216 0
215 -613 -163 0
215 613 -216 0
-216 614 217 0
-216 -614 193 0
216 -614 -193 0
216 614 -217 0
217 -615 -206 0
217 615 -218 0
-217 615 218 0
-217 -615 206 0
218 -616 -643 0
218 616 -644 0
-218 616 644 0
-218 -616 643 0
219 -645 -220 0
219 -220 -225 0
219 -645 -225 0
-219 645 225 0
-219 220 225 0
-219 645 220 0
220 612 173 -221 0
220 -612 -102 173 0
-220 -173 0
-220 -612 102 0
-220 612 221 0
221 -613 -170 0
221 613 -222 0
-221 613 222 0
-221 -613 170 0
222 -614 -199 0
222 614 -223 0
-222 614 223 0
-222 -614 199 0
223 -615 -212 0
223 615 -224 0
-223 615 224 0
-223 -615 212 0
224 -616 -644 0
224 616 -645 0
-224 616 645 0
-224 -616 644 0
225 -646 -226 0
225 -226 -231 0
225 -646 -231 0
-225 646 231 0
-225 226 231 0
-225 646 226 0
226 612 173 -227 0
226 -612 -108 173 0
-226 -173 0
-226 612 227 0
-226 -612 108 0
-227 -613 180 0
-227 613 228 0
227 -613 -180 0
227 613 -228 0
-228 -614 205 0
-228 614 229 0
228 -614 -205 0
228 614 -229 0
-229 615 230 0
-229 -615 218 0
229 -615 -218 0
229 615 -230 0
230 -616 -645 0
230 616 -646 0
-230 616 646 0
-230 -616 645 0
231 -647 -232 0
231 -232 -237 0
231 -647 -237 0
-231 647 237 0
-231 232 237 0
-231 647 232 0
232 612 173 -233 0
232 -612 -114 173 0
-232 -173 0
-232 612 233 0
-232 -612 114 0
-233 -613 186 0
-233 613 234 0
233 -613 -186 0
233 613 -234 0
-234 -614 211 0
-234 614 235 0
234 -614 -211 0
234 614 -235 0
-235 615 236 0
-235 -615 224 0
235 -615 -224 0
235 615 -236 0
236 -616 -646 0
236 616 -647 0
-236 616 647 0
-236 -616 646 0
237 -648 -238 0
-237 648 0
-237 238 0
238 612 173 -239 0
238 -612 -120 173 0
-238 -173 0
-238 612 239 0
-238 -612 120 0
-239 -613 192 0
-239 613 240 0
239 -613 -192 0
239 613 -240 0
-240 -614 217 0
-240 614 241 0
240 -614 -217 0
240 614 -241 0
-241 615 242 0
-241 -615 230 0
241 -615 -230 0
241 615 -242 0
242 -616 -647 0
242 616 -648 0
-242 616 648 0
-242 -616 647 0
243 -617 244 0
243 617 -244 0
-243 617 244 0
-243 -617 -244 0
-244 585 -245 0
-244 585 -139 0
-244 585 246 0
244 -585 0
244 139 245 -246 0
-245 611 14 128 159 0
245 -611 0
245 -159 0
245 -128 0
245 -14 0
246 42 -74 142 0
-246 -42 0
-246 74 0
-246 -142 0
247 -586 -250 0
247 -586 -248 0
247 -248 -250 0
-247 248 250 0
-247 586 250 0
-247 586 248 0
-248 -25 -249 0
-248 25 249 0
248 25 -249 0
248 -25 249 0
249 618 -7 0
249 -618 7 0
-249 -618 -7 0
-249 618 7 0
250 -587 -253 0
250 -587 -251 0
250 -251 -253 0
-250 251 253 0
-250 587 253 0
-250 587 251 0
-251 -31 -252 0
-251 31 252 0
251 31 -252 0
251 -31 252 0
252 619 -26 0
252 -619 26 0
-252 -619 -26 0
-252 619 26 0
253 -588 -256 0
253 -588 -254 0
253 -254 -256 0
-253 254 256 0
-253 588 256 0
-253 588 254 0
-254 -43 -255 0
-254 43 255 0
254 43 -255 0
254 -43 255 0
255 620 -32 0
255 -620 32 0
-255 -620 -32 0
-255 620 32 0
256 -589 -259 0
256 -589 -257 0
256 -257 -259 0
-256 257 259 0
-256 589 259 0
-256 589 257 0
-257 -50 -258 0
-257 50 258 0
257 50 -258 0
257 -50 258 0
258 621 -44 0
258 -621 44 0
-258 -621 -44 0
-258 621 44 0
259 -590 -262 0
259 -590 -260 0
259 -260 -262 0
-259 260 262 0
-259 590 262 0
-259 590 260 0
-260 -56 -261 0
-260 56 261 0
260 56 -261 0
260 -56 261 0
261 622 -51 0
261 -622 51 0
-261 -622 -51 0
-261 622 51 0
262 -591 -265 0
262 -591 -263 0
262 -263 -265 0
-262 263 265 0
-262 591 265 0
-262 591 263 0
-263 -62 -264 0
-263 62 264 0
263 62 -264 0
263 -62 264 0
264 623 -57 0
264 -623 57 0
-264 -623 -57 0
-264 623 57 0
265 -592 -268 0
265 -592 -266 0
265 -266 -268 0
-265 266 268 0
-265 592 268 0
-265 592 266 0
-266 -68 -267 0
-266 68 267 0
266 68 -267 0
266 -68 267 0
267 624 -63 0
267 -624 63 0
-267 -624 -63 0
-267 624 63 0
268 -593 -271 0
268 -593 -269 0
268 -269 -271 0
-268 269 271 0
-268 593 271 0
-268 593 269 0
-269 -80 -270 0
-269 80 270 0
269 80 -270 0
269 -80 270 0
270 625 -69 0
270 -625 69 0
-270 -625 -69 0
-270 625 69 0
271 -594 -274 0
271 -594 -272 0
271 -272 -274 0
-271 272 274 0
-271 594 274 0
-271 594 272 0
-272 -88 -273 0
-272 88 273 0
272 88 -273 0
272 -88 273 0
273 626 -81 0
273 -626 81 0
-273 -626 -81 0
-273 626 81 0
274 -595 -277 0
274 -595 -275 0
274 -275 -277 0
-274 275 277 0
-274 595 277 0
-274 595 275 0
-275 -94 -276 0
-275 94 276 0
275 94 -276 0
275 -94 276 0
276 627 -89 0
276 -627 89 0
-276 -627 -89 0
-276 627 89 0
277 -596 -280 0
277 -596 -278 0
277 -278 -280 0
-277 278 280 0
-277 596 280 0
-277 596 278 0
-278 -100 -279 0
-278 100 279 0
278 100 -279 0
278 -100 279 0
279 628 -95 0
279 -628 95 0
-279 -628 -95 0
-279 628 95 0
280 -597 -283 0
280 -597 -281 0
280 -281 -283 0
-280 281 283 0
-280 597 283 0
-280 597 281 0
-281 -106 -282 0
-281 106 282 0
281 106 -282 0
281 -106 282 0
282 629 -101 0
282 -629 101 0
-282 -629 -101 0
-282 629 101 0
283 -598 -286 0
283 -598 -284 0
283 -284 -286 0
-283 284 286 0
-283 598 286 0
-283 598 284 0
-284 -112 -285 0
-284 112 285 0
284 112 -285 0
284 -112 285 0
285 630 -107 0
285 -630 107 0
-285 -630 -107 0
-285 630 107 0
286 -599 -289 0
286 -599 -287 0
286 -287 -289 0
-286 287 289 0
-286 599 289 0
-286 599 287 0
-287 -118 -288 0
-287 118 288 0
287 118 -288 0
287 -118 288 0
288 631 -113 0
288 -631 113 0
-288 -631 -113 0
-288 631 113 0
289 -600 -292 0
289 -600 -290 0
289 -290 -292 0
-289 290 292 0
-289 600 292 0
-289 600 290 0
-290 -124 -291 0
-290 124 291 0
290 124 -291 0
290 -124 291 0
291 632 -119 0
291 -632 119 0
-291 -632 -119 0
-291 632 119 0
292 -601 -295 0
292 -601 -293 0
292 -293 -295 0
-292 293 295 0
-292 601 295 0
-292 601 293 0
-293 -136 -294 0
-293 136 294 0
293 136 -294 0
293 -136 294 0
294 633 -125 0
294 -633 125 0
-294 -633 -125 0
-294 633 125 0
295 -602 -298 0
295 -602 -296 0
295 -296 -298 0
-295 296 298 0
-295 602 298 0
-295 602 296 0
-296 -148 -297 0
-296 148 297 0
296 148 -297 0
296 -148 297 0
297 634 -137 0
297 -634 137 0
-297 -634 -137 0
-297 634 137 0
298 -603 -301 0
298 -603 -299 0
298 -299 -301 0
-298 299 301 0
-298 603 301 0
-298 603 299 0
-299 -160 -300 0
-299 160 300 0
299 160 -300 0
299 -160 300 0
300 635 -149 0
300 -635 149 0
-300 -635 -149 0
-300 635 149 0
301 -604 -304 0
301 -604 -302 0
301 -302 -304 0
-301 302 304 0
-301 604 304 0
-301 604 302 0
-302 -167 -303 0
-302 167 303 0
302 167 -303 0
302 -167 303 0
303 636 -161 0
303 -636 161 0
-303 -636 -161 0
-303 636 161 0
304 -605 -307 0
304 -605 -305 0
304 -305 -307 0
-304 305 307 0
-304 605 307 0
-304 605 305 0
-305 -177 -306 0
-305 177 306 0
305 177 -306 0
305 -177 306 0
306 637 -168 0
306 -637 168 0
-306 -637 -168 0
-306 637 168 0
307 -606 -310 0
307 -606 -308 0
307 -308 -310 0
-307 308 310 0
-307 606 310 0
-307 606 308 0
-308 -183 -309 0
-308 183 309 0
308 183 -309 0
308 -183 309 0
309 638 -178 0
309 -638 178 0
-309 -638 -178 0
-309 638 178 0
310 -607 -313 0
310 -607 -311 0
310 -311 -313 0
-310 311 313 0
-310 607 313 0
-310 607 311 0
-311 -189 -312 0
-311 189 312 0
311 189 -312 0
311 -189 312 0
312 639 -184 0
312 -639 184 0
-312 -639 -184 0
-312 639 184 0
313 -608 -316 0
313 -608 -314 0
313 -314 -316 0
-313 314 316 0
-313 608 316 0
-313 608 314 0
-314 -195 -315 0
-314 195 315 0
314 195 -315 0
314 -195 315 0
315 640 -190 0
315 -640 190 0
-315 -640 -190 0
-315 640 190 0
316 -609 -319 0
316 -609 -317 0
316 -317 -319 0
-316 317 319 0
-316 609 319 0
-316 609 317 0
-317 -201 -318 0
-317 201 318 0
317 201 -318 0
317 -201 318 0
318 641 -196 0
318 -641 196 0
-318 -641 -196 0
-318 641 196 0
319 -610 -320 0
319 -320 -322 0
319 -610 -322 0
-319 610 322 0
-319 320 322 0
-319 610 320 0
320 207 -321 0
320 -207 321 0
-320 -207 -321 0
-320 207 321 0
321 642 -202 0
321 -642 202 0
-321 -642 -202 0
-321 642 202 0
322 -611 -323 0
322 -323 -325 0
322 -611 -325 0
-322 611 325 0
-322 323 325 0
-322 611 323 0
323 213 -324 0
323 -213 324 0
-323 -213 -324 0
-323 213 324 0
324 643 -208 0
324 -643 208 0
-324 -643 -208 0
-324 643 208 0
325 -612 -326 0
325 -326 -328 0
325 -612 -328 0
-325 612 328 0
-325 326 328 0
-325 612 326 0
326 219 -327 0
326 -219 327 0
-326 -219 -327 0
-326 219 327 0
327 644 -214 0
327 -644 214 0
-327 -644 -214 0
-327 644 214 0
328 -613 -329 0
328 -329 -331 0
328 -613 -331 0
-328 613 331 0
-328 329 331 0
-328 613 329 0
329 225 -330 0
329 -225 330 0
-329 -225 -330 0
-329 225 330 0
330 645 -220 0
330 -645 220 0
-330 -645 -220 0
-330 645 220 0
331 -614 -332 0
331 -332 -334 0
331 -614 -334 0
-331 614 334 0
-331 332 334 0
-331 614 332 0
332 231 -333 0
332 -231 333 0
-332 -231 -333 0
-332 231 333 0
333 646 -226 0
333 -646 226 0
-333 -646 -226 0
-333 646 226 0
334 -615 -335 0
334 -335 -337 0
334 -615 -337 0
-334 615 337 0
-334 335 337 0
-334 615 335 0
335 237 -336 0
335 -237 336 0
-335 -237 -336 0
-335 237 336 0
336 647 -232 0
336 -647 232 0
-336 -647 -232 0
-336 647 232 0
337 -616 648 -238 0
337 -616 -648 238 0
-337 616 0
-337 -648 -238 0
-337 648 238 0
338 339 -460 0
338 -339 460 0
-338 -339 -460 0
-338 339 460 0
339 -618 -340 0
339 -340 -397 0
339 -618 -397 0
-339 618 397 0
-339 340 397 0
-339 618 340 0
340 341 -342 0
340 -341 342 0
-340 -341 -342 0
-340 341 342 0
-341 586 7 0
341 -586 0
341 -7 0
342 -343 -344 0
-342 343 0
-342 344 0
-343 587 26 0
343 -587 0
343 -26 0
344 -345 -346 0
-344 345 0
-344 346 0
-345 588 32 0
345 -588 0
345 -32 0
346 -347 -348 0
-346 347 0
-346 348 0
-347 589 44 0
347 -589 0
347 -44 0
348 -349 -350 0
-348 349 0
-348 350 0
-349 590 51 0
349 -590 0
349 -51 0
350 -351 -352 0
-350 351 0
-350 352 0
-351 591 57 0
351 -591 0
351 -57 0
352 -353 -354 0
-352 353 0
-352 354 0
-353 592 63 0
353 -592 0
353 -63 0
354 -355 -356 0
-354 355 0
-354 356 0
-355 593 69 0
355 -593 0
355 -69 0
356 -357 -358 0
-356 357 0
-356 358 0
-357 594 81 0
357 -594 0
357 -81 0
358 -359 -360 0
-358 359 0
-358 360 0
-359 595 89 0
359 -595 0
359 -89 0
360 -361 -362 0
-360 361 0
-360 362 0
-361 596 95 0
361 -596 0
361 -95 0
362 -363 -364 0
-362 363 0
-362 364 0
-363 597 101 0
363 -597 0
363 -101 0
364 -365 -366 0
-364 365 0
-364 366 0
-365 598 107 0
365 -598 0
365 -107 0
366 -367 -368 0
-366 367 0
-366 368 0
-367 599 113 0
367 -599 0
367 -113 0
368 -369 -370 0
-368 369 0
-368 370 0
-369 600 119 0
369 -600 0
369 -119 0
370 -371 -372 0
-370 371 0
-370 372 0
-371 601 125 0
371 -601 0
371 -125 0
372 -373 -374 0
-372 373 0
-372 374 0
-373 602 137 0
373 -602 0
373 -137 0
374 -375 -376 0
-374 375 0
-374 376 0
-375 603 149 0
375 -603 0
375 -149 0
376 -377 -378 0
-376 377 0
-376 378 0
-377 604 161 0
377 -604 0
377 -161 0
378 -379 -380 0
-378 379 0
-378 380 0
-379 605 168 0
379 -605 0
379 -168 0
380 -381 -382 0
-380 381 0
-380 382 0
-381 606 178 0
381 -606 0
381 -178 0
382 -383 -384 0
-382 383 0
-382 384 0
-383 607 184 0
383 -607 0
383 -184 0
384 -385 -386 0
-384 385 0
-384 386 0
-385 608 190 0
385 -608 0
385 -190 0
386 -387 -388 0
-386 387 0
-386 388 0
-387 609 196 0
387 -609 0
387 -196 0
388 -389 -390 0
-388 389 0
-388 390 0
-389 610 202 0
389 -610 0
389 -202 0
390 -391 -392 0
-390 391 0
-390 392 0
-391 611 208 0
391 -611 0
391 -208 0
392 -612 -214 0
392 -214 -393 0
392 -612 -393 0
-392 612 393 0
-392 214 393 0
-392 612 214 0
393 -613 -220 0
393 -220 -394 0
393 -613 -394 0
-393 613 394 0
-393 220 394 0
-393 613 220 0
394 -614 -226 0
394 -226 -395 0
394 -614 -395 0
-394 614 395 0
-394 226 395 0
-394 614 226 0
395 -615 -232 0
395 -232 -396 0
395 -615 -396 0
-395 615 396 0
-395 232 396 0
-395 615 232 0
396 -616 -238 0
-396 616 0
-396 238 0
397 -619 -398 0
397 -398 -399 0
397 -619 -399 0
-397 619 399 0
-397 398 399 0
-397 619 398 0
398 343 -344 0
398 -343 344 0
-398 -343 -344 0
-398 343 344 0
399 -620 -401 0
399 -620 -400 0
399 -400 -401 0
-399 400 401 0
-399 620 401 0
-399 620 400 0
-400 -345 -346 0
-400 345 346 0
400 345 -346 0
400 -345 346 0
401 -621 -403 0
401 -621 -402 0
401 -402 -403 0
-401 402 403 0
-401 621 403 0
-401 621 402 0
-402 -347 -348 0
-402 347 348 0
402 347 -348 0
402 -347 348 0
403 -622 -405 0
403 -622 -404 0
403 -404 -405 0
-403 404 405 0
-403 622 405 0
-403 622 404 0
-404 -349 -350 0
-404 349 350 0
404 349 -350 0
404 -349 350 0
405 -623 -407 0
405 -623 -406 0
405 -406 -407 0
-405 406 407 0
-405 623 407 0
-405 623 406 0
-406 -351 -352 0
-406 351 352 0
406 351 -352 0
406 -351 352 0
407 -624 -409 0
407 -624 -408 0
407 -408 -409 0
-407 408 409 0
-407 624 409 0
-407 624 408 0
-408 -353 -354 0
-408 353 354 0
408 353 -354 0
408 -353 354 0
409 -625 -411 0
409 -625 -410 0
409 -410 -411 0
-409 410 411 0
-409 625 411 0
-409 625 410 0
-410 -355 -356 0
-410 355 356 0
410 355 -356 0
410 -355 356 0
411 -626 -413 0
411 -626 -412 0
411 -412 -413 0
-411 412 413 0
-411 626 413 0
-411 626 412 0
-412 -357 -358 0
-412 357 358 0
412 357 -358 0
412 -357 358 0
413 -627 -415 0
413 -627 -414 0
413 -414 -415 0
-413 414 415 0
-413 627 415 0
-413 627 414 0
-414 -359 -360 0
-414 359 360 0
414 359 -360 0
414 -359 360 0
415 -628 -417 0
415 -628 -416 0
415 -416 -417 0
-415 416 417 0
-415 628 417 0
-415 628 416 0
-416 -361 -362 0
-416 361 362 0
416 361 -362 0
416 -361 362 0
417 -629 -419 0
417 -629 -418 0
417 -418 -419 0
-417 418 419 0
-417 629 419 0
-417 629 418 0
-418 -363 -364 0
-418 363 364 0
418 363 -364 0
418 -363 364 0
419 -630 -421 0
419 -630 -420 0
419 -420 -421 0
-419 420 421 0
-419 630 421 0
-419 630 420 0
-420 -365 -366 0
-420 365 366 0
420 365 -366 0
420 -365 366 0
421 -631 -423 0
421 -631 -422 0
421 -422 -423 0
-421 422 423 0
-421 631 423 0
-421 631 422 0
-422 -367 -368 0
-422 367 368 0
422 367 -368 0
422 -367 368 0
423 -632 -425 0
423 -632 -424 0
423 -424 -425 0
-423 424 425 0
-423 632 425 0
-423 632 424 0
-424 -369 -370 0
-424 369 370 0
424 369 -370 0
424 -369 370 0
425 -633 -427 0
425 -633 -426 0
425 -426 -427 0
-425 426 427 0
-425 633 427 0
-425 633 426 0
-426 -371 -372 0
-426 371 372 0
426 371 -372 0
426 -371 372 0
427 -634 -429 0
427 -634 -428 0
427 -428 -429 0
-427 428 429 0
-427 634 429 0
-427 634 428 0
-428 -373 -374 0
-428 373 374 0
428 373 -374 0
428 -373 374 0
429 -635 -431 0
429 -635 -430 0
429 -430 -431 0
-429 430 431 0
-429 635 431 0
-429 635 430 0
-430 -375 -376 0
-430 375 376 0
430 375 -376 0
430 -375 376 0
431 -636 -433 0
431 -636 -432 0
431 -432 -433 0
-431 432 433 0
-431 636 433 0
-431 636 432 0
-432 -377 -378 0
-432 377 378 0
432 377 -378 0
432 -377 378 0
433 -637 -435 0
433 -637 -434 0
433 -434 -435 0
-433 434 435 0
-433 637 435 0
-433 637 434 0
-434 -379 -380 0
-434 379 380 0
434 379 -380 0
434 -379 380 0
435 -638 -437 0
435 -638 -436 0
435 -436 -437 0
-435 436 437 0
-435 638 437 0
-435 638 436 0
-436 -381 -382 0
-436 381 382 0
436 381 -382 0
436 -381 382 0
437 -639 -439 0
437 -639 -438 0
437 -438 -439 0
-437 438 439 0
-437 639 439 0
-437 639 438 0
-438 -383 -384 0
-438 383 384 0
438 383 -384 0
438 -383 384 0
439 -640 -441 0
439 -640 -440 0
439 -440 -441 0
-439 440 441 0
-439 640 441 0
-439 640 440 0
-440 -385 -386 0
-440 385 386 0
440 385 -386 0
440 -385 386 0
441 -641 -443 0
441 -641 -442 0
441 -442 -443 0
-441 442 443 0
-441 641 443 0
-441 641 442 0
-442 -387 -388 0
-442 387 388 0
442 387 -388 0
442 -387 388 0
443 -642 -444 0
443 -444 -445 0
443 -642 -445 0
-443 642 445 0
-443 444 445 0
-443 642 444 0
444 389 -390 0
444 -389 390 0
-444 -389 -390 0
-444 389 390 0
445 -643 -446 0
445 -446 -447 0
445 -643 -447 0
-445 643 447 0
-445 446 447 0
-445 643 446 0
446 391 -392 0
446 -391 392 0
-446 -391 -392 0
-446 391 392 0
447 -644 -448 0
447 -448 -450 0
447 -644 -450 0
-447 644 450 0
-447 448 450 0
-447 644 448 0
448 393 -449 0
448 -393 449 0
-448 -393 -449 0
-448 393 449 0
449 612 -214 0
449 -612 214 0
-449 -612 -214 0
-449 612 214 0
450 -645 -451 0
450 -451 -453 0
450 -645 -453 0
-450 645 453 0
-450 451 453 0
-450 645 451 0
451 394 -452 0
451 -394 452 0
-451 -394 -452 0
-451 394 452 0
452 613 -220 0
452 -613 220 0
-452 -613 -220 0
-452 613 220 0
453 -646 -454 0
453 -454 -456 0
453 -646 -456 0
-453 646 456 0
-453 454 456 0
-453 646 454 0
454 395 -455 0
454 -395 455 0
-454 -395 -455 0
-454 395 455 0
455 614 -226 0
455 -614 226 0
-455 -614 -226 0
-455 614 226 0
456 -647 -457 0
456 -457 -459 0
456 -647 -459 0
-456 647 459 0
-456 457 459 0
-456 647 457 0
457 396 -458 0
457 -396 458 0
-457 -396 -458 0
-457 396 458 0
458 615 -232 0
458 -615 232 0
-458 -615 -232 0
-458 615 232 0
459 616 -648 -238 0
459 -616 -648 238 0
-459 648 0
-459 -616 -238 0
-459 616 238 0
460 -243 461 0
-460 243 0
-460 -461 0
461 -341 -342 0
-461 341 0
-461 342 0
462 250 -463 0
462 -250 463 0
-462 -250 -463 0
-462 250 463 0
463 -586 248 0
463 586 -248 0
-463 586 248 0
-463 -586 -248 0
464 397 -465 0
464 -397 465 0
-464 -397 -465 0
-464 397 465 0
465 618 -340 0
465 -618 340 0
-465 -618 -340 0
-465 618 340 0
-466 467 472 474 476 0
-466 467 -472 -474 476 0
466 -476 0
466 -472 474 0
466 -467 0
466 472 -474 0
467 468 -470 0
467 -468 470 0
-467 -468 -470 0
-467 468 470 0
468 253 -469 0
468 -253 469 0
-468 -253 -469 0
-468 253 469 0
469 -587 251 0
469 587 -251 0
-469 587 251 0
-469 -587 -251 0
470 399 -471 0
470 -399 471 0
-470 -399 -471 0
-470 399 471 0
471 619 -398 0
471 -619 398 0
-471 -619 -398 0
-471 619 398 0
472 256 -473 0
472 -256 473 0
-472 -256 -473 0
-472 256 473 0
473 -588 254 0
473 588 -254 0
-473 588 254 0
-473 -588 -254 0
474 401 -475 0
474 -401 475 0
-474 -401 -475 0
-474 401 475 0
475 -620 400 0
475 620 -400 0
-475 620 400 0
-475 -620 -400 0
-476 477 482 484 486 0
-476 477 -482 -484 486 0
476 -486 0
476 -482 484 0
476 -477 0
476 482 -484 0
477 478 -480 0
477 -478 480 0
-477 -478 -480 0
-477 478 480 0
478 259 -479 0
478 -259 479 0
-478 -259 -479 0
-478 259 479 0
479 -589 257 0
479 589 -257 0
-479 589 257 0
-479 -589 -257 0
480 403 -481 0
480 -403 481 0
-480 -403 -481 0
-480 403 481 0
481 -621 402 0
481 621 -402 0
-481 621 402 0
-481 -621 -402 0
482 262 -483 0
482 -262 483 0
-482 -262 -483 0
-482 262 483 0
483 -590 260 0
483 590 -260 0
-483 590 260 0
-483 -590 -260 0
484 405 -485 0
484 -405 485 0
-484 -405 -485 0
-484 405 485 0
485 -622 404 0
485 622 -404 0
-485 622 404 0
-485 -622 -404 0
-486 487 489 491 496 0
-486 -487 -489 491 496 0
486 -491 0
486 487 -489 0
486 -496 0
486 -487 489 0
487 265 -488 0
487 -265 488 0
-487 -265 -488 0
-487 265 488 0
488 -591 263 0
488 591 -263 0
-488 591 263 0
-488 -591 -263 0
489 407 -490 0
489 -407 490 0
-489 -407 -490 0
-489 407 490 0
490 -623 406 0
490 623 -406 0
-490 623 406 0
-490 -623 -406 0
491 492 -494 0
491 -492 494 0
-491 -492 -494 0
-491 492 494 0
492 268 -493 0
492 -268 493 0
-492 -268 -493 0
-492 268 493 0
493 -592 266 0
493 592 -266 0
-493 592 266 0
-493 -592 -266 0
494 409 -495 0
494 -409 495 0
-494 -409 -495 0
-494 409 495 0
495 -624 408 0
495 624 -408 0
-495 624 408 0
-495 -624 -408 0
-496 497 499 501 506 0
-496 -497 -499 501 506 0
496 -501 0
496 497 -499 0
496 -506 0
496 -497 499 0
497 271 -498 0
497 -271 498 0
-497 -271 -498 0
-497 271 498 0
498 -593 269 0
498 593 -269 0
-498 593 269 0
-498 -593 -269 0
499 411 -500 0
499 -411 500 0
-499 -411 -500 0
-499 411 500 0
500 -625 410 0
500 625 -410 0
-500 625 410 0
-500 -625 -410 0
501 502 -504 0
501 -502 504 0
-501 -502 -504 0
-501 502 504 0
502 274 -503 0
502 -274 503 0
-502 -274 -503 0
-502 274 503 0
503 -594 272 0
503 594 -272 0
-503 594 272 0
-503 -594 -272 0
504 413 -505 0
504 -413 505 0
-504 -413 -505 0
-504 413 505 0
505 -626 412 0
505 626 -412 0
-505 626 412 0
-505 -626 -412 0
-506 507 512 514 516 0
-506 507 -512 -514 516 0
506 -516 0
506 -512 514 0
506 -507 0
506 512 -514 0
507 508 -510 0
507 -508 510 0
-507 -508 -510 0
-507 508 510 0
508 277 -509 0
508 -277 509 0
-508 -277 -509 0
-508 277 509 0
509 -595 275 0
509 595 -275 0
-509 595 275 0
-509 -595 -275 0
510 415 -511 0
510 -415 511 0
-510 -415 -511 0
-510 415 511 0
511 -627 414 0
511 627 -414 0
-511 627 414 0
-511 -627 -414 0
512 280 -513 0
512 -280 513 0
-512 -280 -513 0
-512 280 513 0
513 -596 278 0
513 596 -278 0
-513 596 278 0
-513 -596 -278 0
514 417 -515 0
514 -417 515 0
-514 -417 -515 0
-514 417 515 0
515 -628 416 0
515 628 -416 0
-515 628 416 0
-515 -628 -416 0
-516 517 519 521 526 0
-516 -517 -519 521 526 0
516 -521 0
516 517 -519 0
516 -526 0
516 -517 519 0
517 283 -518 0
517 -283 518 0
-517 -283 -518 0
-517 283 518 0
518 -597 281 0
518 597 -281 0
-518 597 281 0
-518 -597 -281 0
519 419 -520 0
519 -419 520 0
-519 -419 -520 0
-519 419 520 0
520 -629 418 0
520 629 -418 0
-520 629 418 0
-520 -629 -418 0
521 522 -524 0
521 -522 524 0
-521 -522 -524 0
-521 522 524 0
522 286 -523 0
522 -286 523 0
-522 -286 -523 0
-522 286 523 0
523 -598 284 0
523 598 -284 0
-523 598 284 0
-523 -598 -284 0
524 421 -525 0
524 -421 525 0
-524 -421 -525 0
-524 421 525 0
525 -630 420 0
525 630 -420 0
-525 630 420 0
-525 -630 -420 0
-526 527 529 531 536 0
-526 -527 -529 531 536 0
526 -531 0
526 527 -529 0
526 -536 0
526 -527 529 0
527 289 -528 0
527 -289 528 0
-527 -289 -528 0
-527 289 528 0
528 -599 287 0
528 599 -287 0
-528 599 287 0
-528 -599 -287 0
529 423 -530 0
529 -423 530 0
-529 -423 -530 0
-529 423 530 0
530 -631 422 0
530 631 -422 0
-530 631 422 0
-530 -631 -422 0
531 532 -534 0
531 -532 534 0
-531 -532 -534 0
-531 532 534 0
532 292 -533 0
532 -292 533 0
-532 -292 -533 0
-532 292 533 0
533 -600 290 0
533 600 -290 0
-533 600 290 0
-533 -600 -290 0
534 425 -535 0
534 -425 535 0
-534 -425 -535 0
-534 425 535 0
535 -632 424 0
535 632 -424 0
-535 632 424 0
-535 -632 -424 0
-536 537 542 544 546 0
-536 537 -542 -544 546 0
536 -546 0
536 -542 544 0
536 -537 0
536 542 -544 0
537 538 -540 0
537 -538 540 0
-537 -538 -540 0
-537 538 540 0
538 295 -539 0
538 -295 539 0
-538 -295 -539 0
-538 295 539 0
539 -601 293 0
539 601 -293 0
-539 601 293 0
-539 -601 -293 0
540 427 -541 0
540 -427 541 0
-540 -427 -541 0
-540 427 541 0
541 -633 426 0
541 633 -426 0
-541 633 426 0
-541 -633 -426 0
542 298 -543 0
542 -298 543 0
-542 -298 -543 0
-542 298 543 0
543 -602 296 0
543 602 -296 0
-543 602 296 0
-543 -602 -296 0
544 429 -545 0
544 -429 545 0
-544 -429 -545 0
-544 429 545 0
545 -634 428 0
545 634 -428 0
-545 634 428 0
-545 -634 -428 0
-546 547 549 551 556 0
-546 -547 -549 551 556 0
546 -551 0
546 547 -549 0
546 -556 0
546 -547 549 0
547 301 -548 0
547 -301 548 0
-547 -301 -548 0
-547 301 548 0
548 -603 299 0
548 603 -299 0
-548 603 299 0
-548 -603 -299 0
549 431 -550 0
549 -431 550 0
-549 -431 -550 0
-549 431 550 0
550 -635 430 0
550 635 -430 0
-550 635 430 0
-550 -635 -430 0
551 552 -554 0
551 -552 554 0
-551 -552 -554 0
-551 552 554 0
552 304 -553 0
552 -304 553 0
-552 -304 -553 0
-552 304 553 0
553 -604 302 0
553 604 -302 0
-553 604 302 0
-553 -604 -302 0
554 433 -555 0
554 -433 555 0
-554 -433 -555 0
-554 433 555 0
555 -636 432 0
555 636 -432 0
-555 636 432 0
-555 -636 -432 0
-556 557 562 564 566 0
-556 557 -562 -564 566 0
556 -566 0
556 -562 564 0
556 -557 0
556 562 -564 0
557 558 -560 0
557 -558 560 0
-557 -558 -560 0
-557 558 560 0
558 307 -559 0
558 -307 559 0
-558 -307 -559 0
-558 307 559 0
559 -605 305 0
559 605 -305 0
-559 605 305 0
-559 -605 -305 0
560 435 -561 0
560 -435 561 0
-560 -435 -561 0
-560 435 561 0
561 -637 434 0
561 637 -434 0
-561 637 434 0
-561 -637 -434 0
562 310 -563 0
562 -310 563 0
-562 -310 -563 0
-562 310 563 0
563 -606 308 0
563 606 -308 0
-563 606 308 0
-563 -606 -308 0
564 437 -565 0
564 -437 565 0
-564 -437 -565 0
-564 437 565 0
565 -638 436 0
565 638 -436 0
-565 638 436 0
-565 -638 -436 0
-566 567 572 574 576 0
-566 567 -572 -574 576 0
566 -576 0
566 -572 574 0
566 -567 0
566 572 -574 0
567 568 -570 0
567 -568 570 0
-567 -568 -570 0
-567 568 570 0
568 313 -569 0
568 -313 569 0
-568 -313 -569 0
-568 313 569 0
569 -607 311 0
569 607 -311 0
-569 607 311 0
-569 -607 -311 0
570 439 -571 0
570 -439 571 0
-570 -439 -571 0
-570 439 571 0
571 -639 438 0
571 639 -438 0
-571 639 438 0
-571 -639 -438 0
572 316 -573 0
572 -316 573 0
-572 -316 -573 0
-572 316 573 0
573 -608 314 0
573 608 -314 0
-573 608 314 0
-573 -608 -314 0
574 441 -575 0
574 -441 575 0
-574 -441 -575 0
-574 441 575 0
575 -640 440 0
575 640 -440 0
-575 640 440 0
-575 -640 -440 0
-576 577 579 -581 -583 0
-576 -577 -579 -581 -583 0
-576 577 579 581 583 0
-576 -577 -579 581 583 0
576 577 -579 0
576 -577 579 0
576 581 -583 0
576 -581 583 0
577 319 -578 0
577 -319 578 0
-577 -319 -578 0
-577 319 578 0
578 -609 317 0
578 609 -317 0
-578 609 317 0
-578 -609 -317 0
579 443 -580 0
579 -443 580 0
-579 -443 -580 0
-579 443 580 0
580 -641 442 0
580 641 -442 0
-580 641 442 0
-580 -641 -442 0
581 322 -582 0
581 -322 582 0
-581 -322 -582 0
-581 322 582 0
582 610 -320 0
582 -610 320 0
-582 -610 -320 0
-582 610 320 0
583 445 -584 0
583 -445 584 0
-583 -445 -584 0
-583 445 584 0
584 642 -444 0
584 -642 444 0
-584 -642 -444 0
-584 642 444 0
-649 0
2 0

